DIMENSION: 16
EDGE_WEIGHT_TYPE: EXPLICIT
EDGE_WEIGHT_FORMAT: FULL_MATRIX
EDGE_WEIGHT_SECTION:
32767 77 90 12 3 82 32767 32767 20 11 32767 32767 32767 81 97 89 
77 32767 32767 27 32767 41 32767 32767 32767 32767 32767 32767 32767 99 32767 32767 
90 32767 32767 32767 75 32767 32767 32767 32767 32767 32767 32767 32767 38 32767 32767 
12 27 32767 32767 32767 14 13 32767 32767 32767 56 32767 32767 32767 32767 32767 
3 32767 75 32767 32767 32767 5 32767 32767 32767 22 64 32767 32767 32767 32767 
82 41 32767 14 32767 32767 32767 32767 32767 32767 84 84 32767 32767 32767 32767 
32767 32767 32767 13 5 32767 32767 32767 32767 32767 67 32767 71 32767 69 32767 
32767 32767 32767 32767 32767 32767 32767 32767 32767 83 94 32767 53 93 32767 76 
20 32767 32767 32767 32767 32767 32767 32767 32767 15 32767 32767 32767 32767 99 32767 
11 32767 32767 32767 32767 32767 32767 83 15 32767 32767 18 32767 32767 32767 32767 
32767 32767 32767 56 22 84 67 94 32767 32767 32767 32767 52 32767 32767 76 
32767 32767 32767 32767 64 84 32767 32767 32767 18 32767 32767 32767 29 35 32767 
32767 32767 32767 32767 32767 32767 71 53 32767 32767 52 32767 32767 62 32767 54 
81 99 38 32767 32767 32767 32767 93 32767 32767 32767 29 62 32767 32767 32767 
97 32767 32767 32767 32767 32767 69 32767 99 32767 32767 35 32767 32767 32767 32767 
89 32767 32767 32767 32767 32767 32767 76 32767 32767 76 32767 54 32767 32767 32767 
EOF